1240
911 982 1064 1157 1202 
122 172 882 1118 1136 
0 68 454 517 580 
331 433 490 555 854 
0 393 469 499 580 
0 128 649 775 883 
169 243 490 550 672 
678 693 717 1064 1096 
82 217 548 637 693 
63 128 686 693 738 
0 64 172 263 949 
506 549 717 772 908 
89 217 263 338 382 
343 382 404 610 656 
934 949 1028 1136 1202 
523 629 695 775 821 
281 587 632 747 843 
623 660 1096 1148 1222 
0 64 128 235 338 
499 527 634 700 1148 
